Maximize
 0
Subject To
 epc_0!1: -36.08172756928252 y_1!1_2!1 -7.718560369442201 y_1!2_2!1 -97.9752665230019 y_1!3_2!1 -38.36472673238676 y_1!4_2!1 -3.0357930530719273 y_1!5_2!1 +44.126796525610274 y_1!1_2!2 -55.34124634656874 y_1!2_2!2 -15.491533624718727 y_1!3_2!2 -16.179952437085873 y_1!4_2!2 -57.523400848686634 y_1!5_2!2 -65.60857583532942 y_1!1_2!3 -22.821050084458477 y_1!2_2!3 +5.590690685202745 y_1!3_2!3 +20.991434268707266 y_1!4_2!3 +6.031868602617635 y_1!5_2!3 -39.59807170433691 y_1!1_2!4 -41.92937509000962 y_1!2_2!4 +99.56066655901722 y_1!3_2!4 +66.29685841053279 y_1!4_2!4 -26.932862068069426 y_1!5_2!4 +31.810447123944982 y_1!1_2!5 +6.869913682255884 y_1!2_2!5 +52.25649932603551 y_1!3_2!5 -70.35807838487386 y_1!4_2!5 +62.13597358466777 y_1!5_2!5 + lambda_0!1 - mu_0 = 0
 epc_0!2: +87.94222550503957 y_1!1_2!1 -57.09245143028725 y_1!2_2!1 +50.886052540857065 y_1!3_2!1 -2.5534826389354066 y_1!4_2!1 -19.65674677058331 y_1!5_2!1 -30.78375695299647 y_1!1_2!2 -30.345572943315375 y_1!2_2!2 +79.08687681130269 y_1!3_2!2 -65.63013477109723 y_1!4_2!2 -35.57187692888333 y_1!5_2!2 -19.34060016499683 y_1!1_2!3 +56.875140741944165 y_1!2_2!3 -82.98360041345117 y_1!3_2!3 -3.4800897824361954 y_1!4_2!3 -20.142820375669316 y_1!5_2!3 -74.85643524401078 y_1!1_2!4 -86.23449292496667 y_1!2_2!4 +42.36569590362848 y_1!3_2!4 +45.4907579774532 y_1!4_2!4 -8.172938165588548 y_1!5_2!4 -93.3643710250696 y_1!1_2!5 +13.688092225548814 y_1!2_2!5 +4.397327561918928 y_1!3_2!5 -54.363182567789956 y_1!4_2!5 -4.236505074776019 y_1!5_2!5 + lambda_0!2 - mu_0 = 0
 epc_0!3: -73.56843445186601 y_1!1_2!1 +40.74403146760602 y_1!2_2!1 -40.11824150240948 y_1!3_2!1 -61.79204226274351 y_1!4_2!1 +82.51662549395849 y_1!5_2!1 -78.53510573889918 y_1!1_2!2 +21.68580015945882 y_1!2_2!2 +40.859905024766846 y_1!3_2!2 -16.511187336443257 y_1!4_2!2 +46.04336482912805 y_1!5_2!2 +66.8455581933128 y_1!1_2!3 +93.0971735639043 y_1!2_2!3 +73.51279351866171 y_1!3_2!3 -19.98624505844873 y_1!4_2!3 -65.80661812191244 y_1!5_2!3 +39.85636953744452 y_1!1_2!4 +75.15852195057343 y_1!2_2!4 +14.918033367537205 y_1!3_2!4 +31.603121126056834 y_1!4_2!4 +10.325214582610371 y_1!5_2!4 -51.5232684786568 y_1!1_2!5 -25.815510576959454 y_1!2_2!5 -81.15272208139271 y_1!3_2!5 -62.19711094020137 y_1!4_2!5 +12.90724060947528 y_1!5_2!5 + lambda_0!3 - mu_0 = 0
 epc_0!4: +24.718786815728947 y_1!1_2!1 +42.62930718642252 y_1!2_2!1 +4.939419137431415 y_1!3_2!1 -69.20343905063535 y_1!4_2!1 +52.419310828542734 y_1!5_2!1 -13.635685677597024 y_1!1_2!2 -10.766581190566143 y_1!2_2!2 +2.8333417206955573 y_1!3_2!2 +42.04453701085569 y_1!4_2!2 +37.10935096079547 y_1!5_2!2 +4.7528173983602215 y_1!1_2!3 +42.176901876300064 y_1!2_2!3 +48.98784892057921 y_1!3_2!3 +30.48453855240689 y_1!4_2!3 +40.926794313326724 y_1!5_2!3 +69.28468056102366 y_1!1_2!4 -74.17806046758086 y_1!2_2!4 -28.437253797514472 y_1!3_2!4 -23.16697751732721 y_1!4_2!4 -84.40014928450486 y_1!5_2!4 -54.08361890821145 y_1!1_2!5 +55.96280815148006 y_1!2_2!5 +47.13252925781862 y_1!3_2!5 +28.999037958737517 y_1!4_2!5 -85.82156202326485 y_1!5_2!5 + lambda_0!4 - mu_0 = 0
 epc_0!5: -37.4253774890916 y_1!1_2!1 +15.828831259089228 y_1!2_2!1 +79.50295569777234 y_1!3_2!1 -3.2668076108612922 y_1!4_2!1 +80.45446103640211 y_1!5_2!1 -16.918602331454352 y_1!1_2!2 -65.61598394939273 y_1!2_2!2 -29.07558703861082 y_1!3_2!2 +19.743442241415664 y_1!4_2!2 +67.57590873483409 y_1!5_2!2 +75.90186378411349 y_1!1_2!3 +84.21261883027333 y_1!2_2!3 -4.080751408402364 y_1!3_2!3 +21.729698874446996 y_1!4_2!3 +54.70686058663139 y_1!5_2!3 +95.34563528062762 y_1!1_2!4 +16.621435469916236 y_1!2_2!4 -35.47280610292201 y_1!3_2!4 -34.63135811310009 y_1!4_2!4 +81.74802717996513 y_1!5_2!4 -68.69340321812786 y_1!1_2!5 -26.83819506107541 y_1!2_2!5 -61.71317459917094 y_1!3_2!5 -34.904425178026884 y_1!4_2!5 +82.36860037502441 y_1!5_2!5 + lambda_0!5 - mu_0 = 0
 dc_0: x_0!1 + x_0!2 + x_0!3 + x_0!4 + x_0!5 = 1
 bc_0!1: lambda_0!1 +299.2410188979081 x_0!1 <= 299.2410188979081
 bc_0!2: lambda_0!2 +299.2410188979081 x_0!2 <= 299.2410188979081
 bc_0!3: lambda_0!3 +299.2410188979081 x_0!3 <= 299.2410188979081
 bc_0!4: lambda_0!4 +299.2410188979081 x_0!4 <= 299.2410188979081
 bc_0!5: lambda_0!5 +299.2410188979081 x_0!5 <= 299.2410188979081
 sum_0!1: y_1!1_2!1 - x_1!1 - x_2!1 >= -1
 idk_0!1!1: y_1!1_2!1 - x_1!1 <= 0
 idk_0!1!2: y_1!1_2!1 - x_2!1 <= 0
 sum_0!2: y_1!2_2!1 - x_1!2 - x_2!1 >= -1
 idk_0!2!1: y_1!2_2!1 - x_1!2 <= 0
 idk_0!2!2: y_1!2_2!1 - x_2!1 <= 0
 sum_0!3: y_1!3_2!1 - x_1!3 - x_2!1 >= -1
 idk_0!3!1: y_1!3_2!1 - x_1!3 <= 0
 idk_0!3!2: y_1!3_2!1 - x_2!1 <= 0
 sum_0!4: y_1!4_2!1 - x_1!4 - x_2!1 >= -1
 idk_0!4!1: y_1!4_2!1 - x_1!4 <= 0
 idk_0!4!2: y_1!4_2!1 - x_2!1 <= 0
 sum_0!5: y_1!5_2!1 - x_1!5 - x_2!1 >= -1
 idk_0!5!1: y_1!5_2!1 - x_1!5 <= 0
 idk_0!5!2: y_1!5_2!1 - x_2!1 <= 0
 sum_0!6: y_1!1_2!2 - x_1!1 - x_2!2 >= -1
 idk_0!6!1: y_1!1_2!2 - x_1!1 <= 0
 idk_0!6!2: y_1!1_2!2 - x_2!2 <= 0
 sum_0!7: y_1!2_2!2 - x_1!2 - x_2!2 >= -1
 idk_0!7!1: y_1!2_2!2 - x_1!2 <= 0
 idk_0!7!2: y_1!2_2!2 - x_2!2 <= 0
 sum_0!8: y_1!3_2!2 - x_1!3 - x_2!2 >= -1
 idk_0!8!1: y_1!3_2!2 - x_1!3 <= 0
 idk_0!8!2: y_1!3_2!2 - x_2!2 <= 0
 sum_0!9: y_1!4_2!2 - x_1!4 - x_2!2 >= -1
 idk_0!9!1: y_1!4_2!2 - x_1!4 <= 0
 idk_0!9!2: y_1!4_2!2 - x_2!2 <= 0
 sum_0!10: y_1!5_2!2 - x_1!5 - x_2!2 >= -1
 idk_0!10!1: y_1!5_2!2 - x_1!5 <= 0
 idk_0!10!2: y_1!5_2!2 - x_2!2 <= 0
 sum_0!11: y_1!1_2!3 - x_1!1 - x_2!3 >= -1
 idk_0!11!1: y_1!1_2!3 - x_1!1 <= 0
 idk_0!11!2: y_1!1_2!3 - x_2!3 <= 0
 sum_0!12: y_1!2_2!3 - x_1!2 - x_2!3 >= -1
 idk_0!12!1: y_1!2_2!3 - x_1!2 <= 0
 idk_0!12!2: y_1!2_2!3 - x_2!3 <= 0
 sum_0!13: y_1!3_2!3 - x_1!3 - x_2!3 >= -1
 idk_0!13!1: y_1!3_2!3 - x_1!3 <= 0
 idk_0!13!2: y_1!3_2!3 - x_2!3 <= 0
 sum_0!14: y_1!4_2!3 - x_1!4 - x_2!3 >= -1
 idk_0!14!1: y_1!4_2!3 - x_1!4 <= 0
 idk_0!14!2: y_1!4_2!3 - x_2!3 <= 0
 sum_0!15: y_1!5_2!3 - x_1!5 - x_2!3 >= -1
 idk_0!15!1: y_1!5_2!3 - x_1!5 <= 0
 idk_0!15!2: y_1!5_2!3 - x_2!3 <= 0
 sum_0!16: y_1!1_2!4 - x_1!1 - x_2!4 >= -1
 idk_0!16!1: y_1!1_2!4 - x_1!1 <= 0
 idk_0!16!2: y_1!1_2!4 - x_2!4 <= 0
 sum_0!17: y_1!2_2!4 - x_1!2 - x_2!4 >= -1
 idk_0!17!1: y_1!2_2!4 - x_1!2 <= 0
 idk_0!17!2: y_1!2_2!4 - x_2!4 <= 0
 sum_0!18: y_1!3_2!4 - x_1!3 - x_2!4 >= -1
 idk_0!18!1: y_1!3_2!4 - x_1!3 <= 0
 idk_0!18!2: y_1!3_2!4 - x_2!4 <= 0
 sum_0!19: y_1!4_2!4 - x_1!4 - x_2!4 >= -1
 idk_0!19!1: y_1!4_2!4 - x_1!4 <= 0
 idk_0!19!2: y_1!4_2!4 - x_2!4 <= 0
 sum_0!20: y_1!5_2!4 - x_1!5 - x_2!4 >= -1
 idk_0!20!1: y_1!5_2!4 - x_1!5 <= 0
 idk_0!20!2: y_1!5_2!4 - x_2!4 <= 0
 sum_0!21: y_1!1_2!5 - x_1!1 - x_2!5 >= -1
 idk_0!21!1: y_1!1_2!5 - x_1!1 <= 0
 idk_0!21!2: y_1!1_2!5 - x_2!5 <= 0
 sum_0!22: y_1!2_2!5 - x_1!2 - x_2!5 >= -1
 idk_0!22!1: y_1!2_2!5 - x_1!2 <= 0
 idk_0!22!2: y_1!2_2!5 - x_2!5 <= 0
 sum_0!23: y_1!3_2!5 - x_1!3 - x_2!5 >= -1
 idk_0!23!1: y_1!3_2!5 - x_1!3 <= 0
 idk_0!23!2: y_1!3_2!5 - x_2!5 <= 0
 sum_0!24: y_1!4_2!5 - x_1!4 - x_2!5 >= -1
 idk_0!24!1: y_1!4_2!5 - x_1!4 <= 0
 idk_0!24!2: y_1!4_2!5 - x_2!5 <= 0
 sum_0!25: y_1!5_2!5 - x_1!5 - x_2!5 >= -1
 idk_0!25!1: y_1!5_2!5 - x_1!5 <= 0
 idk_0!25!2: y_1!5_2!5 - x_2!5 <= 0
 epc_1!1: -54.27682421773488 y_0!1_2!1 -69.5047586344614 y_0!2_2!1 -85.31805878743917 y_0!3_2!1 -14.484507263516605 y_0!4_2!1 -56.6574698570697 y_0!5_2!1 +59.05222103365338 y_0!1_2!2 -74.93727627066356 y_0!2_2!2 -72.32031065835203 y_0!3_2!2 -21.22969851589376 y_0!4_2!2 +36.24886288687128 y_0!5_2!2 -2.2163158768288866 y_0!1_2!3 -49.891626375064256 y_0!2_2!3 +32.02111424512552 y_0!3_2!3 -84.33586761661094 y_0!4_2!3 +44.97114956221094 y_0!5_2!3 +87.81371733038887 y_0!1_2!4 +5.211820996303132 y_0!2_2!4 -29.238585834890912 y_0!3_2!4 +11.294279020573626 y_0!4_2!4 -11.36291767869136 y_0!5_2!4 -58.12249592997303 y_0!1_2!5 +65.4837562794417 y_0!2_2!5 -35.98835672658474 y_0!3_2!5 -95.01553090215207 y_0!4_2!5 +24.497230115745168 y_0!5_2!5 + lambda_1!1 - mu_1 = 0
 epc_1!2: -67.76016771554546 y_0!1_2!1 +1.0788739996589527 y_0!2_2!1 -97.27735752847657 y_0!3_2!1 +83.20019703833017 y_0!4_2!1 -68.03021971891673 y_0!5_2!1 +99.5189646570677 y_0!1_2!2 +24.602775408141625 y_0!2_2!2 -33.30481162516499 y_0!3_2!2 -24.141977686343537 y_0!4_2!2 -7.367935289717238 y_0!5_2!2 +92.45913825792431 y_0!1_2!3 +90.8240323623225 y_0!2_2!3 -85.96870434462099 y_0!3_2!3 -99.72205424084038 y_0!4_2!3 +62.14094498408451 y_0!5_2!3 +74.48834804858464 y_0!1_2!4 +11.20254737801865 y_0!2_2!4 +84.19952903730504 y_0!3_2!4 +33.30397377686819 y_0!4_2!4 +71.4916846141131 y_0!5_2!4 +48.25701022292321 y_0!1_2!5 +41.05321037377473 y_0!2_2!5 -14.874987654079177 y_0!3_2!5 +95.4733594678257 y_0!4_2!5 +59.99568442647495 y_0!5_2!5 + lambda_1!2 - mu_1 = 0
 epc_1!3: -56.772997747715294 y_0!1_2!1 +2.8771943231658383 y_0!2_2!1 -40.42953694424727 y_0!3_2!1 +69.32172628243075 y_0!4_2!1 +34.81552933367874 y_0!5_2!1 -72.93142434310099 y_0!1_2!2 +70.98496415806613 y_0!2_2!2 +78.03552471731021 y_0!3_2!2 +22.832526574548908 y_0!4_2!2 +35.30790305947906 y_0!5_2!2 +33.983535937974466 y_0!1_2!3 -41.371444026305085 y_0!2_2!3 +67.59771435077081 y_0!3_2!3 -55.27048670931407 y_0!4_2!3 -83.9161315871044 y_0!5_2!3 -62.122150295389254 y_0!1_2!4 -10.171926972820344 y_0!2_2!4 -0.6239138890809386 y_0!3_2!4 +63.15346415146766 y_0!4_2!4 -23.619154004684347 y_0!5_2!4 +15.763626668215608 y_0!1_2!5 -54.63087952649086 y_0!2_2!5 +24.62587568784174 y_0!3_2!5 -55.296749844289 y_0!4_2!5 +38.48847857314095 y_0!5_2!5 + lambda_1!3 - mu_1 = 0
 epc_1!4: -94.15859733225437 y_0!1_2!1 +37.668051625789786 y_0!2_2!1 +69.63569010246343 y_0!3_2!1 -5.614030831328392 y_0!4_2!1 +78.61014485085232 y_0!5_2!1 +74.05885778361133 y_0!1_2!2 -93.61337414466763 y_0!2_2!2 +9.615561515041932 y_0!3_2!2 +70.15526840587262 y_0!4_2!2 +5.994410155068479 y_0!5_2!2 +38.038340109044896 y_0!1_2!3 -39.6531360368088 y_0!2_2!3 -35.53161360167773 y_0!3_2!3 -77.9748690879481 y_0!4_2!3 +53.728569743111734 y_0!5_2!3 -1.893718223975398 y_0!1_2!4 +48.601447149183514 y_0!2_2!4 -54.98941734001039 y_0!3_2!4 -91.26791263125861 y_0!4_2!4 -86.89471084068612 y_0!5_2!4 -38.30371128091716 y_0!1_2!5 +72.39699671608395 y_0!2_2!5 -54.42876029791699 y_0!3_2!5 -93.76842544129052 y_0!4_2!5 -33.81395310880329 y_0!5_2!5 + lambda_1!4 - mu_1 = 0
 epc_1!5: +43.3696240229967 y_0!1_2!1 -68.4826587475778 y_0!2_2!1 -81.89314682184292 y_0!3_2!1 +80.91463617555067 y_0!4_2!1 -86.20025047844398 y_0!5_2!1 -70.25003978821623 y_0!1_2!2 -10.267484460205694 y_0!2_2!2 -26.045340400339526 y_0!3_2!2 +13.467861797889455 y_0!4_2!2 +87.64962816364547 y_0!5_2!2 -98.15097566392383 y_0!1_2!3 -54.95781914037505 y_0!2_2!3 -27.63994007075121 y_0!3_2!3 +42.44862363970569 y_0!4_2!3 +25.289370656567584 y_0!5_2!3 -80.69193327087041 y_0!1_2!4 -69.33210544488759 y_0!2_2!4 +68.61257056623467 y_0!3_2!4 +31.101940826152315 y_0!4_2!4 +22.113541492087933 y_0!5_2!4 +40.856772943581944 y_0!1_2!5 -18.868795668877425 y_0!2_2!5 +72.25512339955625 y_0!3_2!5 +56.17168767060019 y_0!4_2!5 -49.857831754347856 y_0!5_2!5 + lambda_1!5 - mu_1 = 0
 dc_1: x_1!1 + x_1!2 + x_1!3 + x_1!4 + x_1!5 = 1
 bc_1!1: lambda_1!1 +299.2410188979081 x_1!1 <= 299.2410188979081
 bc_1!2: lambda_1!2 +299.2410188979081 x_1!2 <= 299.2410188979081
 bc_1!3: lambda_1!3 +299.2410188979081 x_1!3 <= 299.2410188979081
 bc_1!4: lambda_1!4 +299.2410188979081 x_1!4 <= 299.2410188979081
 bc_1!5: lambda_1!5 +299.2410188979081 x_1!5 <= 299.2410188979081
 sum_1!1: y_0!1_2!1 - x_0!1 - x_2!1 >= -1
 idk_1!1!0: y_0!1_2!1 - x_0!1 <= 0
 idk_1!1!2: y_0!1_2!1 - x_2!1 <= 0
 sum_1!2: y_0!2_2!1 - x_0!2 - x_2!1 >= -1
 idk_1!2!0: y_0!2_2!1 - x_0!2 <= 0
 idk_1!2!2: y_0!2_2!1 - x_2!1 <= 0
 sum_1!3: y_0!3_2!1 - x_0!3 - x_2!1 >= -1
 idk_1!3!0: y_0!3_2!1 - x_0!3 <= 0
 idk_1!3!2: y_0!3_2!1 - x_2!1 <= 0
 sum_1!4: y_0!4_2!1 - x_0!4 - x_2!1 >= -1
 idk_1!4!0: y_0!4_2!1 - x_0!4 <= 0
 idk_1!4!2: y_0!4_2!1 - x_2!1 <= 0
 sum_1!5: y_0!5_2!1 - x_0!5 - x_2!1 >= -1
 idk_1!5!0: y_0!5_2!1 - x_0!5 <= 0
 idk_1!5!2: y_0!5_2!1 - x_2!1 <= 0
 sum_1!6: y_0!1_2!2 - x_0!1 - x_2!2 >= -1
 idk_1!6!0: y_0!1_2!2 - x_0!1 <= 0
 idk_1!6!2: y_0!1_2!2 - x_2!2 <= 0
 sum_1!7: y_0!2_2!2 - x_0!2 - x_2!2 >= -1
 idk_1!7!0: y_0!2_2!2 - x_0!2 <= 0
 idk_1!7!2: y_0!2_2!2 - x_2!2 <= 0
 sum_1!8: y_0!3_2!2 - x_0!3 - x_2!2 >= -1
 idk_1!8!0: y_0!3_2!2 - x_0!3 <= 0
 idk_1!8!2: y_0!3_2!2 - x_2!2 <= 0
 sum_1!9: y_0!4_2!2 - x_0!4 - x_2!2 >= -1
 idk_1!9!0: y_0!4_2!2 - x_0!4 <= 0
 idk_1!9!2: y_0!4_2!2 - x_2!2 <= 0
 sum_1!10: y_0!5_2!2 - x_0!5 - x_2!2 >= -1
 idk_1!10!0: y_0!5_2!2 - x_0!5 <= 0
 idk_1!10!2: y_0!5_2!2 - x_2!2 <= 0
 sum_1!11: y_0!1_2!3 - x_0!1 - x_2!3 >= -1
 idk_1!11!0: y_0!1_2!3 - x_0!1 <= 0
 idk_1!11!2: y_0!1_2!3 - x_2!3 <= 0
 sum_1!12: y_0!2_2!3 - x_0!2 - x_2!3 >= -1
 idk_1!12!0: y_0!2_2!3 - x_0!2 <= 0
 idk_1!12!2: y_0!2_2!3 - x_2!3 <= 0
 sum_1!13: y_0!3_2!3 - x_0!3 - x_2!3 >= -1
 idk_1!13!0: y_0!3_2!3 - x_0!3 <= 0
 idk_1!13!2: y_0!3_2!3 - x_2!3 <= 0
 sum_1!14: y_0!4_2!3 - x_0!4 - x_2!3 >= -1
 idk_1!14!0: y_0!4_2!3 - x_0!4 <= 0
 idk_1!14!2: y_0!4_2!3 - x_2!3 <= 0
 sum_1!15: y_0!5_2!3 - x_0!5 - x_2!3 >= -1
 idk_1!15!0: y_0!5_2!3 - x_0!5 <= 0
 idk_1!15!2: y_0!5_2!3 - x_2!3 <= 0
 sum_1!16: y_0!1_2!4 - x_0!1 - x_2!4 >= -1
 idk_1!16!0: y_0!1_2!4 - x_0!1 <= 0
 idk_1!16!2: y_0!1_2!4 - x_2!4 <= 0
 sum_1!17: y_0!2_2!4 - x_0!2 - x_2!4 >= -1
 idk_1!17!0: y_0!2_2!4 - x_0!2 <= 0
 idk_1!17!2: y_0!2_2!4 - x_2!4 <= 0
 sum_1!18: y_0!3_2!4 - x_0!3 - x_2!4 >= -1
 idk_1!18!0: y_0!3_2!4 - x_0!3 <= 0
 idk_1!18!2: y_0!3_2!4 - x_2!4 <= 0
 sum_1!19: y_0!4_2!4 - x_0!4 - x_2!4 >= -1
 idk_1!19!0: y_0!4_2!4 - x_0!4 <= 0
 idk_1!19!2: y_0!4_2!4 - x_2!4 <= 0
 sum_1!20: y_0!5_2!4 - x_0!5 - x_2!4 >= -1
 idk_1!20!0: y_0!5_2!4 - x_0!5 <= 0
 idk_1!20!2: y_0!5_2!4 - x_2!4 <= 0
 sum_1!21: y_0!1_2!5 - x_0!1 - x_2!5 >= -1
 idk_1!21!0: y_0!1_2!5 - x_0!1 <= 0
 idk_1!21!2: y_0!1_2!5 - x_2!5 <= 0
 sum_1!22: y_0!2_2!5 - x_0!2 - x_2!5 >= -1
 idk_1!22!0: y_0!2_2!5 - x_0!2 <= 0
 idk_1!22!2: y_0!2_2!5 - x_2!5 <= 0
 sum_1!23: y_0!3_2!5 - x_0!3 - x_2!5 >= -1
 idk_1!23!0: y_0!3_2!5 - x_0!3 <= 0
 idk_1!23!2: y_0!3_2!5 - x_2!5 <= 0
 sum_1!24: y_0!4_2!5 - x_0!4 - x_2!5 >= -1
 idk_1!24!0: y_0!4_2!5 - x_0!4 <= 0
 idk_1!24!2: y_0!4_2!5 - x_2!5 <= 0
 sum_1!25: y_0!5_2!5 - x_0!5 - x_2!5 >= -1
 idk_1!25!0: y_0!5_2!5 - x_0!5 <= 0
 idk_1!25!2: y_0!5_2!5 - x_2!5 <= 0
 epc_2!1: +16.41247044884146 y_0!1_1!1 +61.52485840990005 y_0!2_1!1 -62.30250850877772 y_0!3_1!1 +60.82528037232484 y_0!4_1!1 +95.46389587773072 y_0!5_1!1 +77.32128994560662 y_0!1_1!2 -45.261512119844085 y_0!2_1!2 -58.01699297290626 y_0!3_1!2 +37.822859306910175 y_0!4_1!2 +23.425226193215337 y_0!5_1!2 +46.46779953500848 y_0!1_1!3 -57.190441453852344 y_0!2_1!3 +87.79149408907986 y_0!3_1!3 +33.127049003230496 y_0!4_1!3 +7.924620015609989 y_0!5_1!3 -71.83669398613226 y_0!1_1!4 +43.98238037168014 y_0!2_1!4 +52.94198388963963 y_0!3_1!4 +69.8202048479319 y_0!4_1!4 -58.742138185243675 y_0!5_1!4 -20.365766164309534 y_0!1_1!5 +8.493350042114528 y_0!2_1!5 -44.297852435362195 y_0!3_1!5 -49.9178882510692 y_0!4_1!5 +66.68302644465439 y_0!5_1!5 + lambda_2!1 - mu_2 = 0
 epc_2!2: -32.063661110788516 y_0!1_1!1 +89.53843731160961 y_0!2_1!1 +8.459695043361009 y_0!3_1!1 +24.309870990465683 y_0!4_1!1 +45.372155859893496 y_0!5_1!1 +44.071676717251535 y_0!1_1!2 -13.204425997218962 y_0!2_1!2 -5.867498857611892 y_0!3_1!2 +16.58540729167059 y_0!4_1!2 -88.88590392165194 y_0!5_1!2 +91.81513121404765 y_0!1_1!3 -5.597647802844506 y_0!2_1!3 -31.929801039560274 y_0!3_1!3 +34.524346587058375 y_0!4_1!3 +77.60894857321355 y_0!5_1!3 -75.48534492552778 y_0!1_1!4 -32.30655954969579 y_0!2_1!4 +74.9273333559637 y_0!3_1!4 -47.94558938686089 y_0!4_1!4 -21.165793106617656 y_0!5_1!4 -68.52353478538664 y_0!1_1!5 +72.30870144309165 y_0!2_1!5 -96.80709117768875 y_0!3_1!5 +85.28480517868155 y_0!4_1!5 -34.14096033859684 y_0!5_1!5 + lambda_2!2 - mu_2 = 0
 epc_2!3: +38.43585400398106 y_0!1_1!1 -90.60061962460905 y_0!2_1!1 +9.34569958048695 y_0!3_1!1 +88.4425498808946 y_0!4_1!1 +45.62773991705865 y_0!5_1!1 +55.188603856887624 y_0!1_1!2 +58.04364315008962 y_0!2_1!2 -27.40795210707489 y_0!3_1!2 -18.28406517090022 y_0!4_1!2 -48.73939422902747 y_0!5_1!2 +81.22448292219516 y_0!1_1!3 +22.409552900283174 y_0!2_1!3 -86.89013518206572 y_0!3_1!3 +52.895242956797915 y_0!4_1!3 +98.83354991460067 y_0!5_1!3 +64.47392143984507 y_0!1_1!4 -61.30071853829624 y_0!2_1!4 +85.06387807788329 y_0!3_1!4 -16.870557664784002 y_0!4_1!4 +41.375333116751506 y_0!5_1!4 -73.10244670167951 y_0!1_1!5 +15.633947857574142 y_0!2_1!5 -6.299024109899804 y_0!3_1!5 -90.5447042682342 y_0!4_1!5 +6.449419250724048 y_0!5_1!5 + lambda_2!3 - mu_2 = 0
 epc_2!4: +69.79984462751042 y_0!1_1!1 +0.8526022938736304 y_0!2_1!1 +79.2958434719335 y_0!3_1!1 -71.30257816933138 y_0!4_1!1 -50.61837284017423 y_0!5_1!1 -60.63129154397559 y_0!1_1!2 -7.615495033099705 y_0!2_1!2 +34.821357082474265 y_0!3_1!2 -90.10944111833263 y_0!4_1!2 +9.862682193872033 y_0!5_1!2 +1.014275928252033 y_0!1_1!3 -53.8645434360477 y_0!2_1!3 +56.26861894221017 y_0!3_1!3 -11.138243589993735 y_0!4_1!3 +10.86082493229506 y_0!5_1!3 +48.84836510203337 y_0!1_1!4 -55.03334622292224 y_0!2_1!4 -78.52578478933799 y_0!3_1!4 -43.188176894214145 y_0!4_1!4 -33.23878386077675 y_0!5_1!4 -74.46614265946856 y_0!1_1!5 +51.93057597485128 y_0!2_1!5 -87.4938296277989 y_0!3_1!5 -93.80050353568181 y_0!4_1!5 +19.148937685760487 y_0!5_1!5 + lambda_2!4 - mu_2 = 0
 epc_2!5: +97.48587909227021 y_0!1_1!1 +82.67374217371139 y_0!2_1!1 +17.04464789453459 y_0!3_1!1 -85.46871318197147 y_0!4_1!1 +90.11544711065525 y_0!5_1!1 +94.74896709062824 y_0!1_1!2 -57.94832229785689 y_0!2_1!2 +63.428093875538565 y_0!3_1!2 -1.8682041401325193 y_0!4_1!2 +92.36451159034308 y_0!5_1!2 -76.29060840711028 y_0!1_1!3 +78.38134098417316 y_0!2_1!3 -3.704324478515545 y_0!3_1!3 -61.78596703199744 y_0!4_1!3 +3.720121518047222 y_0!5_1!3 +74.73631709179776 y_0!1_1!4 -21.81040610280023 y_0!2_1!4 -42.59416671216678 y_0!3_1!4 -15.253786906182171 y_0!4_1!4 +56.861133691116606 y_0!5_1!4 +98.56741570038642 y_0!1_1!5 +94.81211804250503 y_0!2_1!5 -72.60924901338055 y_0!3_1!5 -74.69543930586183 y_0!4_1!5 -3.9110418902797335 y_0!5_1!5 + lambda_2!5 - mu_2 = 0
 dc_2: x_2!1 + x_2!2 + x_2!3 + x_2!4 + x_2!5 = 1
 bc_2!1: lambda_2!1 +299.2410188979081 x_2!1 <= 299.2410188979081
 bc_2!2: lambda_2!2 +299.2410188979081 x_2!2 <= 299.2410188979081
 bc_2!3: lambda_2!3 +299.2410188979081 x_2!3 <= 299.2410188979081
 bc_2!4: lambda_2!4 +299.2410188979081 x_2!4 <= 299.2410188979081
 bc_2!5: lambda_2!5 +299.2410188979081 x_2!5 <= 299.2410188979081
 sum_2!1: y_0!1_1!1 - x_0!1 - x_1!1 >= -1
 idk_2!1!0: y_0!1_1!1 - x_0!1 <= 0
 idk_2!1!1: y_0!1_1!1 - x_1!1 <= 0
 sum_2!2: y_0!2_1!1 - x_0!2 - x_1!1 >= -1
 idk_2!2!0: y_0!2_1!1 - x_0!2 <= 0
 idk_2!2!1: y_0!2_1!1 - x_1!1 <= 0
 sum_2!3: y_0!3_1!1 - x_0!3 - x_1!1 >= -1
 idk_2!3!0: y_0!3_1!1 - x_0!3 <= 0
 idk_2!3!1: y_0!3_1!1 - x_1!1 <= 0
 sum_2!4: y_0!4_1!1 - x_0!4 - x_1!1 >= -1
 idk_2!4!0: y_0!4_1!1 - x_0!4 <= 0
 idk_2!4!1: y_0!4_1!1 - x_1!1 <= 0
 sum_2!5: y_0!5_1!1 - x_0!5 - x_1!1 >= -1
 idk_2!5!0: y_0!5_1!1 - x_0!5 <= 0
 idk_2!5!1: y_0!5_1!1 - x_1!1 <= 0
 sum_2!6: y_0!1_1!2 - x_0!1 - x_1!2 >= -1
 idk_2!6!0: y_0!1_1!2 - x_0!1 <= 0
 idk_2!6!1: y_0!1_1!2 - x_1!2 <= 0
 sum_2!7: y_0!2_1!2 - x_0!2 - x_1!2 >= -1
 idk_2!7!0: y_0!2_1!2 - x_0!2 <= 0
 idk_2!7!1: y_0!2_1!2 - x_1!2 <= 0
 sum_2!8: y_0!3_1!2 - x_0!3 - x_1!2 >= -1
 idk_2!8!0: y_0!3_1!2 - x_0!3 <= 0
 idk_2!8!1: y_0!3_1!2 - x_1!2 <= 0
 sum_2!9: y_0!4_1!2 - x_0!4 - x_1!2 >= -1
 idk_2!9!0: y_0!4_1!2 - x_0!4 <= 0
 idk_2!9!1: y_0!4_1!2 - x_1!2 <= 0
 sum_2!10: y_0!5_1!2 - x_0!5 - x_1!2 >= -1
 idk_2!10!0: y_0!5_1!2 - x_0!5 <= 0
 idk_2!10!1: y_0!5_1!2 - x_1!2 <= 0
 sum_2!11: y_0!1_1!3 - x_0!1 - x_1!3 >= -1
 idk_2!11!0: y_0!1_1!3 - x_0!1 <= 0
 idk_2!11!1: y_0!1_1!3 - x_1!3 <= 0
 sum_2!12: y_0!2_1!3 - x_0!2 - x_1!3 >= -1
 idk_2!12!0: y_0!2_1!3 - x_0!2 <= 0
 idk_2!12!1: y_0!2_1!3 - x_1!3 <= 0
 sum_2!13: y_0!3_1!3 - x_0!3 - x_1!3 >= -1
 idk_2!13!0: y_0!3_1!3 - x_0!3 <= 0
 idk_2!13!1: y_0!3_1!3 - x_1!3 <= 0
 sum_2!14: y_0!4_1!3 - x_0!4 - x_1!3 >= -1
 idk_2!14!0: y_0!4_1!3 - x_0!4 <= 0
 idk_2!14!1: y_0!4_1!3 - x_1!3 <= 0
 sum_2!15: y_0!5_1!3 - x_0!5 - x_1!3 >= -1
 idk_2!15!0: y_0!5_1!3 - x_0!5 <= 0
 idk_2!15!1: y_0!5_1!3 - x_1!3 <= 0
 sum_2!16: y_0!1_1!4 - x_0!1 - x_1!4 >= -1
 idk_2!16!0: y_0!1_1!4 - x_0!1 <= 0
 idk_2!16!1: y_0!1_1!4 - x_1!4 <= 0
 sum_2!17: y_0!2_1!4 - x_0!2 - x_1!4 >= -1
 idk_2!17!0: y_0!2_1!4 - x_0!2 <= 0
 idk_2!17!1: y_0!2_1!4 - x_1!4 <= 0
 sum_2!18: y_0!3_1!4 - x_0!3 - x_1!4 >= -1
 idk_2!18!0: y_0!3_1!4 - x_0!3 <= 0
 idk_2!18!1: y_0!3_1!4 - x_1!4 <= 0
 sum_2!19: y_0!4_1!4 - x_0!4 - x_1!4 >= -1
 idk_2!19!0: y_0!4_1!4 - x_0!4 <= 0
 idk_2!19!1: y_0!4_1!4 - x_1!4 <= 0
 sum_2!20: y_0!5_1!4 - x_0!5 - x_1!4 >= -1
 idk_2!20!0: y_0!5_1!4 - x_0!5 <= 0
 idk_2!20!1: y_0!5_1!4 - x_1!4 <= 0
 sum_2!21: y_0!1_1!5 - x_0!1 - x_1!5 >= -1
 idk_2!21!0: y_0!1_1!5 - x_0!1 <= 0
 idk_2!21!1: y_0!1_1!5 - x_1!5 <= 0
 sum_2!22: y_0!2_1!5 - x_0!2 - x_1!5 >= -1
 idk_2!22!0: y_0!2_1!5 - x_0!2 <= 0
 idk_2!22!1: y_0!2_1!5 - x_1!5 <= 0
 sum_2!23: y_0!3_1!5 - x_0!3 - x_1!5 >= -1
 idk_2!23!0: y_0!3_1!5 - x_0!3 <= 0
 idk_2!23!1: y_0!3_1!5 - x_1!5 <= 0
 sum_2!24: y_0!4_1!5 - x_0!4 - x_1!5 >= -1
 idk_2!24!0: y_0!4_1!5 - x_0!4 <= 0
 idk_2!24!1: y_0!4_1!5 - x_1!5 <= 0
 sum_2!25: y_0!5_1!5 - x_0!5 - x_1!5 >= -1
 idk_2!25!0: y_0!5_1!5 - x_0!5 <= 0
 idk_2!25!1: y_0!5_1!5 - x_1!5 <= 0
Bounds
 mu_0 free
 mu_1 free
 mu_2 free
Binary
 x_0!1 x_0!2 x_0!3 x_0!4 x_0!5 x_1!1 x_1!2 x_1!3 x_1!4 x_1!5 x_2!1 x_2!2 x_2!3 x_2!4 x_2!5
End
